MLW05
Position Depot: Random
Horizon for Depot: Large
Position of customers: Mixt
Distribution of the demand: Small
Width of time windows: Wide
Distribution of the service: Small

VEHICLE 
NUMBER 	 CAPACITY 
 5 	 	 67 
 
CUSTOMER
CUST NO. 	 XCOORD.  	 YCOORD. 	 DEMAND 	 READY TIME 	 DUE DATE 	 SERVICE TIME 
 0 	 	 462 	 	 194 	 	 0 	 	 0 	 	 4561 	 	 0 
  1 	 	 520 	 	 635 	 	 8 	 	 3010 	 	 3269 	 	 60 
  2 	 	 411 	 	 164 	 	 6 	 	 562 	 	 964 	 	 82 
  3 	 	 902 	 	 565 	 	 8 	 	 408 	 	 633 	 	 64 
  4 	 	 513 	 	 624 	 	 8 	 	 2951 	 	 3436 	 	 57 
  5 	 	 468 	 	 132 	 	 6 	 	 1723 	 	 2095 	 	 97 
  6 	 	 993 	 	 474 	 	 10 	 	 1306 	 	 1702 	 	 93 
  7 	 	 818 	 	 529 	 	 6 	 	 220 	 	 537 	 	 61 
  8 	 	 579 	 	 650 	 	 5 	 	 2781 	 	 3121 	 	 78 
  9 	 	 874 	 	 525 	 	 10 	 	 2300 	 	 2530 	 	 97 
  10 	 	 580 	 	 659 	 	 6 	 	 316 	 	 527 	 	 52 
  11 	 	 468 	 	 177 	 	 9 	 	 2030 	 	 2475 	 	 70 
  12 	 	 480 	 	 573 	 	 5 	 	 2516 	 	 2884 	 	 50 
  13 	 	 893 	 	 444 	 	 7 	 	 4168 	 	 4561 	 	 57 
  14 	 	 479 	 	 180 	 	 8 	 	 1709 	 	 2159 	 	 53 
  15 	 	 470 	 	 686 	 	 9 	 	 1073 	 	 1425 	 	 74 
  16 	 	 790 	 	 661 	 	 7 	 	 3708 	 	 4071 	 	 78 
  17 	 	 440 	 	 194 	 	 8 	 	 3884 	 	 4352 	 	 63 
  18 	 	 862 	 	 578 	 	 10 	 	 3260 	 	 3511 	 	 73 
  19 	 	 905 	 	 568 	 	 5 	 	 852 	 	 1086 	 	 87 
  20 	 	 923 	 	 489 	 	 5 	 	 4013 	 	 4333 	 	 51 
  21 	 	 510 	 	 175 	 	 9 	 	 3589 	 	 3913 	 	 89 
  22 	 	 583 	 	 637 	 	 10 	 	 2736 	 	 3157 	 	 56 
  23 	 	 504 	 	 742 	 	 9 	 	 1226 	 	 1546 	 	 56 
  24 	 	 845 	 	 602 	 	 9 	 	 3800 	 	 4211 	 	 64 
  25 	 	 390 	 	 72 	 	 9 	 	 392 	 	 797 	 	 52 
  26 	 	 86 	 	 54 	 	 7 	 	 3625 	 	 3957 	 	 57 
  27 	 	 109 	 	 363 	 	 10 	 	 427 	 	 921 	 	 50 
  28 	 	 478 	 	 964 	 	 5 	 	 1518 	 	 1765 	 	 79 
  29 	 	 53 	 	 951 	 	 9 	 	 2488 	 	 2794 	 	 69 
  30 	 	 739 	 	 118 	 	 5 	 	 854 	 	 1207 	 	 75 
  31 	 	 5 	 	 651 	 	 8 	 	 3381 	 	 3601 	 	 91 
  32 	 	 445 	 	 979 	 	 6 	 	 1060 	 	 1325 	 	 59 
  33 	 	 912 	 	 209 	 	 9 	 	 1517 	 	 1941 	 	 79 
  34 	 	 618 	 	 98 	 	 5 	 	 18 	 	 348 	 	 73 
  35 	 	 895 	 	 302 	 	 5 	 	 3520 	 	 3872 	 	 68 
  36 	 	 958 	 	 652 	 	 7 	 	 763 	 	 1098 	 	 72 
  37 	 	 33 	 	 488 	 	 5 	 	 785 	 	 1202 	 	 96 
  38 	 	 5 	 	 887 	 	 7 	 	 1455 	 	 1856 	 	 81 
  39 	 	 309 	 	 449 	 	 7 	 	 2908 	 	 3317 	 	 55 
  40 	 	 511 	 	 406 	 	 6 	 	 1485 	 	 1742 	 	 69 
  41 	 	 323 	 	 496 	 	 9 	 	 3692 	 	 4130 	 	 85 
  42 	 	 657 	 	 405 	 	 8 	 	 2340 	 	 2557 	 	 69 
  43 	 	 547 	 	 353 	 	 10 	 	 2964 	 	 3436 	 	 61 
  44 	 	 895 	 	 727 	 	 8 	 	 1666 	 	 1991 	 	 67 
  45 	 	 330 	 	 554 	 	 5 	 	 2592 	 	 2976 	 	 78 
  46 	 	 338 	 	 491 	 	 9 	 	 3990 	 	 4330 	 	 58 
  47 	 	 113 	 	 712 	 	 9 	 	 733 	 	 1070 	 	 77 
  48 	 	 703 	 	 373 	 	 6 	 	 3821 	 	 4054 	 	 50 
  49 	 	 138 	 	 162 	 	 5 	 	 1921 	 	 2226 	 	 70 
  50 	 	 856 	 	 253 	 	 8 	 	 2724 	 	 3198 	 	 82 
 